
  22   10
  10   10   10   10   10   10   10   10   10   10

   0   0   0   0   0   0   0   0   0   0   0  13 2 3 4 5 6 7 8 9 10 11 19 20 21 
   2  10  10  10  10  10  10  10  10  10  10   5 18 17 16 15 12 
   6  10  10  10  10  10  10  10  10  10  10   4 18 16 15 12 
  10  10  10  10  10  10  10  10  10  10  10   3 16 13 12 
   4  10  10  10  10  10  10  10  10  10  10   3 17 13 12 
  10  10  10  10  10  10  10  10  10  10  10   3 15 14 12 
   9  10  10  10  10  10  10  10  10  10  10   3 14 13 12 
  10  10  10  10  10  10  10  10  10  10  10   1 14 
   3  10  10  10  10  10  10  10  10  10  10   1 13 
   8  10  10  10  10  10  10  10  10  10  10   1 13 
   7  10  10  10  10  10  10  10  10  10  10   1 12 
   2  10  10  10  10  10  10  10  10  10  10   1 22
   5  10  10  10  10  10  10  10  10  10  10   1 22
   1  10  10  10  10  10  10  10  10  10  10   1 22
   3  10  10  10  10  10  10  10  10  10  10   1 22
   4  10  10  10  10  10  10  10  10  10  10   1 22
   7  10  10  10  10  10  10  10  10  10  10   1 22
   1  10  10  10  10  10  10  10  10  10  10   1 22
   4  10  10  10  10  10  10  10  10  10  10   1 22
   3  10  10  10  10  10  10  10  10  10  10   1 22
   5  10  10  10  10  10  10  10  10  10  10   1 22
   0   0   0   0   0   0   0   0   0   0   0   0 
